27384.6
50 48 2 58 24 63 95 41 40 25 32 91 6 46 7 59 96 87 54 64 85 36 82 17 5 51 19 72 70 74 93 78 43 89 76 84 12 0 49 23 26 62 37 71 66 34 65 68 29 94 55 22 38 3 30 44 10 67 47 45 97 86 73 35 81 4 98 42 27 8 28 92 21 14 75 83 60 33 56 18 53 52 1 80 61 39 16 69 9 77 11 79 57 90 88 13 31 99 20 15 
